Instance: E041-14h.dat
Class:  5
   40 --- number of customers (no depot)
   14 --- number of vehicles
  127 --- number of items
Capacity - height - width of vehicles
    60     40     20
Node - x - y - demand
    0    40.0    40.0     0.0
    1    22.0    22.0    18.0
    2    36.0    26.0    26.0
    3    21.0    45.0    11.0
    4    45.0    35.0    30.0
    5    55.0    20.0    21.0
    6    33.0    34.0    19.0
    7    50.0    50.0    15.0
    8    55.0    45.0    16.0
    9    26.0    59.0    29.0
   10    40.0    66.0    26.0
   11    55.0    65.0    37.0
   12    35.0    51.0    16.0
   13    62.0    35.0    12.0
   14    62.0    57.0    31.0
   15    62.0    24.0     8.0
   16    21.0    36.0    19.0
   17    33.0    44.0    20.0
   18     9.0    56.0    13.0
   19    62.0    48.0    15.0
   20    66.0    14.0    22.0
   21    44.0    13.0    28.0
   22    26.0    13.0    12.0
   23    11.0    28.0     6.0
   24     7.0    43.0    27.0
   25    17.0    64.0    14.0
   26    41.0    46.0    18.0
   27    55.0    34.0    17.0
   28    35.0    16.0    29.0
   29    52.0    26.0    13.0
   30    43.0    26.0    22.0
   31    31.0    76.0    25.0
   32    22.0    53.0    28.0
   33    26.0    29.0    27.0
   34    50.0    40.0    19.0
   35    55.0    50.0    10.0
   36    54.0    10.0    12.0
   37    60.0    15.0    14.0
   38    47.0    66.0    24.0
   39    30.0    60.0    16.0
   40    30.0    50.0    33.0
Node - number of items - h - w for each item
    0   0
    1   1   17    3
    2   4    5   11   11    5    6    3    8    2
    3   4    8    9   12    4   16    2    6    2
    4   2    9    4    5    2
    5   4    7   10    9    5    5    5    8    4
    6   3    5    7   11    5    5    4
    7   2    6   10    6    3
    8   3    6   11   10    3    8    2
    9   1    6    5
   10   1    5    3
   11   2    5   10    8    4
   12   5   10    5    7    5    7    5    8    4    9    2
   13   3   10    4   24    3   16    3
   14   2    6   12   23    2
   15   1    4    4
   16   3   10    4    7    3   10    2
   17   1   11    2
   18   4    7   12    7    5   18    3    7    3
   19   5    6    9   15    3    6    3    6    3    6    3
   20   2    8    4    7    2
   21   4    6    8    7    6    4    3    7    2
   22   5    4    8    8    4   10    3    5    3    9    2
   23   1    6    4
   24   5   14    4    9    4    7    4    9    3    5    3
   25   3   11    6   12    4    8    3
   26   4   22    3   16    3   12    3    5    3
   27   5    5    6   13    4    9    4    9    3   11    2
   28   4    7    9   15    4    7    2    4    2
   29   5   11    6    6    5    6    5   15    3    8    3
   30   3    6    7    7    3    8    2
   31   5    5    9    6    5   21    4   10    3    4    3
   32   5    6    8    7    6   11    5    5    4    7    3
   33   4    4   10    7    5    4    4   11    2
   34   3    5    8    9    4    7    3
   35   5    8    6    7    6   10    5   11    4    8    2
   36   2    8    5    9    4
   37   3   15    4    6    3    5    3
   38   3    4    5   13    4   21    2
   39   3    5    6    5    4    8    2
   40   2    9    4    6    4
